p cnf 9 27
-4 0
-8 0
9 3 -3 -1 0
3 -3 -2 0
8 -8 0
8 2 7 -9 0
-7 2 -6 -1 0
-1 0
8 -2 0
4 0
1 -5 -1 0
8 -8 3 0
-8 2 4 0
-6 5 -1 0
4 0
3 -4 -2 7 0
-9 0
-6 3 -1 7 0
2 -4 0
-7 -6 5 -1 0
8 -6 -3 6 0
7 0
9 3 -2 7 0
-8 0
-2 0
-6 3 -4 0
3 4 0
